Problem:    miscela
Rows:       32
Columns:    19
Non-zeros:  76
Status:     OPTIMAL
Objective:  profitti = 7166.666667 (MAXimum)

   No.   Row name   St   Activity     Lower bound   Upper bound    Marginal
------ ------------ -- ------------- ------------- ------------- -------------
     1 limiteBariliUsati[A]
                    NS             0            -0             =       4.16667 
     2 limiteBariliUsati[B]
                    NS             0            -0             =           7.5 
     3 limiteBariliUsati[C]
                    NS             0            -0             =       4.16667 
     4 limiteBariliUsati[D]
                    NS             0            -0             =             5 
     5 limiteBariliProdotti[super]
                    NS             0            -0             =      -4.16667 
     6 limiteBariliProdotti[normale]
                    NS             0            -0             =      -4.16667 
     7 limiteBariliProdotti[verde]
                    NS             0            -0             =          -3.5 
     8 Limite_minimo[A,super]
                    B           1100            -0               
     9 Limite_minimo[A,normale]
                    B           1900            -0               
    10 Limite_minimo[A,verde]
                    B              0            -0               
    11 Limite_minimo[B,super]
                    NL             0            -0                    -3.33333 
    12 Limite_minimo[B,normale]
                    NL             0            -0                    -3.33333 
    13 Limite_minimo[B,verde]
                    B              0            -0               
    14 Limite_minimo[C,super]
                    B           1100            -0               
    15 Limite_minimo[C,normale]
                    B           2900            -0               
    16 Limite_minimo[C,verde]
                    B              0            -0               
    17 Limite_minimo[D,super]
                    B              0            -0               
    18 Limite_minimo[D,normale]
                    B              0            -0               
    19 Limite_minimo[D,verde]
                    B              0            -0               
    20 Limite_massimo[A,super]
                    NU             0                          -0         < eps
    21 Limite_massimo[A,normale]
                    B       -766.667                          -0 
    22 Limite_massimo[A,verde]
                    B              0                          -0 
    23 Limite_massimo[B,super]
                    B          -2200                          -0 
    24 Limite_massimo[B,normale]
                    B          -4800                          -0 
    25 Limite_massimo[B,verde]
                    B              0                          -0 
    26 Limite_massimo[C,super]
                    B       -733.333                          -0 
    27 Limite_massimo[C,normale]
                    B       -2433.33                          -0 
    28 Limite_massimo[C,verde]
                    B              0                          -0 
    29 Limite_massimo[D,super]
                    B       -3666.67                          -0 
    30 Limite_massimo[D,normale]
                    B       -5333.33                          -0 
    31 Limite_massimo[D,verde]
                    B              0                          -0 
    32 profitti     B        7166.67                             

   No. Column name  St   Activity     Lower bound   Upper bound    Marginal
------ ------------ -- ------------- ------------- ------------- -------------
     1 x[A,super]   B           1100             0               
     2 x[A,normale] B           1900             0               
     3 x[A,verde]   NL             0             0                   -0.666667 
     4 x[B,super]   B        1466.67             0               
     5 x[B,normale] B        533.333             0               
     6 x[B,verde]   NL             0             0                          -4 
     7 x[C,super]   B           1100             0               
     8 x[C,normale] B           2900             0               
     9 x[C,verde]   NL             0             0                   -0.666667 
    10 x[D,super]   NL             0             0                   -0.833333 
    11 x[D,normale] NL             0             0                   -0.833333 
    12 x[D,verde]   NL             0             0                        -1.5 
    13 y[A]         NU          3000             0          3000       1.16667 
    14 y[B]         NU          2000             0          2000           1.5 
    15 y[C]         NU          4000             0          4000      0.166667 
    16 y[D]         B              0             0          1000 
    17 z[super]     B        3666.67             0               
    18 z[normale]   B        5333.33             0               
    19 z[verde]     B              0             0               

Karush-Kuhn-Tucker optimality conditions:

KKT.PE: max.abs.err = 4.55e-13 on row 5
        max.rel.err = 6.20e-17 on row 5
        High quality

KKT.PB: max.abs.err = 0.00e+00 on row 0
        max.rel.err = 0.00e+00 on row 0
        High quality

KKT.DE: max.abs.err = 8.88e-16 on column 5
        max.rel.err = 5.55e-17 on column 5
        High quality

KKT.DB: max.abs.err = 0.00e+00 on row 0
        max.rel.err = 0.00e+00 on row 0
        High quality

End of output
